
%    +-----------+
% 8  | | | | | | |
% 7  | | | | | | |
% 6  | |3| | | | |
% 5  | | | | | | |
% 4  | | |1|1| | |
% 3  | | |1|1| | |
% 2  | |4| | | | |
% 1  | | | |2| | |
%    +-----------+
n=6;
m=8;
h=2;
%maxT=30;
boxNumber=4;
boxSideLen = [2, 1, 1, 1];
boxStartX  = [3, 4, 2, 2];
boxStartY  = [3, 1, 6, 2];
